Version identifier: 22.1.0.0 | 2022-03-09 | 1a383f8ce
CPXPARAM_Read_DataCheck                          1
CPXPARAM_TimeLimit                               600
Tried aggregator 4 times.
MIP Presolve eliminated 132636 rows and 11194 columns.
MIP Presolve modified 1407 coefficients.
Aggregator did 124221 substitutions.
Reduced MIP has 11838 rows, 126245 columns, and 264609 nonzeros.
Reduced MIP has 126203 binaries, 42 generals, 0 SOSs, and 0 indicators.
Presolve time = 1.84 sec. (1850.67 ticks)
Tried aggregator 1 time.
Detecting symmetries...
Reduced MIP has 11838 rows, 126245 columns, and 264609 nonzeros.
Reduced MIP has 126203 binaries, 42 generals, 0 SOSs, and 0 indicators.
Presolve time = 0.31 sec. (202.15 ticks)
Probing fixed 67 vars, tightened 0 bounds.
Probing time = 0.74 sec. (63.70 ticks)
Clique table members: 255172.
MIP emphasis: balance optimality and feasibility.
MIP search method: dynamic search.
Parallel mode: deterministic, using up to 8 threads.
Root relaxation solution time = 2.39 sec. (1017.60 ticks)

        Nodes                                         Cuts/
   Node  Left     Objective  IInf  Best Integer    Best Bound    ItCnt     Gap

      0     0       42.4006  8915                     42.4006       24         
      0     0       69.0000  1314                    Cuts: 44    24120         
      0     0       69.0000  1003                    Cuts: 94    44147         
      0     0       69.0000  1173                ZeroHalf: 61    62521         
      0     0       69.0000  1071                ZeroHalf: 36    73849         
      0     0       69.0000  1135                ZeroHalf: 44    86776         
Heuristic still looking.

Zero-half cuts applied:  145
Lift and project cuts applied:  2
Gomory fractional cuts applied:  29

Root node processing (before b&c):
  Real time             =  600.09 sec. (264272.26 ticks)
Parallel b&c, 8 threads:
  Real time             =    0.00 sec. (0.00 ticks)
  Sync time (average)   =    0.00 sec.
  Wait time (average)   =    0.00 sec.
                          ------------
Total (root+branch&cut) =  600.09 sec. (264272.26 ticks)
